InboundTrucks  = 8;
OutboundTrucks = 5;
InboundDoors   = 4;
OutboundDoors  = 4;
ReleaseTime    = [74,108,24,116,69,118,45,59];
UnloadTime     = [21,41,36,26,39,27,29,35];
LoadTime       = [8,10,12,6,9];
TransferTime   = [| 0,0,15,0,44 | 33,0,0,0,25 | 0,35,37,0,0 | 37,39,29,23,0 | 49,31,0,35,0 | 0,37,14,35,0 | 0,0,0,0,16 | 0,11,33,0,10 |];
